(set-option :produce-models true)
(set-logic QF_LRA)
(set-info :notes | Strip-packing problem.|)
(declare-fun x0 () Real)
(declare-fun y0 () Real)
(declare-fun x1 () Real)
(declare-fun y1 () Real)
(declare-fun x2 () Real)
(declare-fun y2 () Real)
(declare-fun x3 () Real)
(declare-fun y3 () Real)
(declare-fun x4 () Real)
(declare-fun y4 () Real)
(declare-fun x5 () Real)
(declare-fun y5 () Real)
(declare-fun x6 () Real)
(declare-fun y6 () Real)
(declare-fun x7 () Real)
(declare-fun y7 () Real)
(declare-fun x8 () Real)
(declare-fun y8 () Real)
(declare-fun x9 () Real)
(declare-fun y9 () Real)
(declare-fun x10 () Real)
(declare-fun y10 () Real)
(declare-fun x11 () Real)
(declare-fun y11 () Real)
(declare-fun x12 () Real)
(declare-fun y12 () Real)
(declare-fun x13 () Real)
(declare-fun y13 () Real)
(declare-fun x14 () Real)
(declare-fun y14 () Real)
(declare-fun z () Real)
(declare-fun c () Real)
(assert (and (= c z) (and (>= x0 0) 
(and (>= y0 0) 
(and (>= x1 0) 
(and (>= y1 0) 
(and (>= x2 0) 
(and (>= y2 0) 
(and (>= x3 0) 
(and (>= y3 0) 
(and (>= x4 0) 
(and (>= y4 0) 
(and (>= x5 0) 
(and (>= y5 0) 
(and (>= x6 0) 
(and (>= y6 0) 
(and (>= x7 0) 
(and (>= y7 0) 
(and (>= x8 0) 
(and (>= y8 0) 
(and (>= x9 0) 
(and (>= y9 0) 
(and (>= x10 0) 
(and (>= y10 0) 
(and (>= x11 0) 
(and (>= y11 0) 
(and (>= x12 0) 
(and (>= y12 0) 
(and (>= x13 0) 
(and (>= y13 0) 
(and (>= x14 0) 
(and (>= y14 0) 
(and (>= z 0) 
(and (>= c 0) 
(and (<= (+ x0 0.1160129132) z) 
(and (<= 0.980329373 y0) 
(and (<= y0 1.9364916731) 
(and (<= x0 (- 2.4646631152 0.1160129132)) 
(and (>= x0 0) 
(and (<= (+ x1 0.0233538637) z) 
(and (<= 0.7097531931 y1) 
(and (<= y1 1.9364916731) 
(and (<= x1 (- 2.4646631152 0.0233538637)) 
(and (>= x1 0) 
(and (<= (+ x2 0.4105267269) z) 
(and (<= 0.6349416556 y2) 
(and (<= y2 1.9364916731) 
(and (<= x2 (- 2.4646631152 0.4105267269)) 
(and (>= x2 0) 
(and (<= (+ x3 0.395654385) z) 
(and (<= 0.6220204055 y3) 
(and (<= y3 1.9364916731) 
(and (<= x3 (- 2.4646631152 0.395654385)) 
(and (>= x3 0) 
(and (<= (+ x4 0.9806891887) z) 
(and (<= 0.4858738607 y4) 
(and (<= y4 1.9364916731) 
(and (<= x4 (- 2.4646631152 0.9806891887)) 
(and (>= x4 0) 
(and (<= (+ x5 0.2643560084) z) 
(and (<= 0.483295799 y5) 
(and (<= y5 1.9364916731) 
(and (<= x5 (- 2.4646631152 0.2643560084)) 
(and (>= x5 0) 
(and (<= (+ x6 0.8605762692) z) 
(and (<= 0.4436882064 y6) 
(and (<= y6 1.9364916731) 
(and (<= x6 (- 2.4646631152 0.8605762692)) 
(and (>= x6 0) 
(and (<= (+ x7 0.3837313716) z) 
(and (<= 0.4347293739 y7) 
(and (<= y7 1.9364916731) 
(and (<= x7 (- 2.4646631152 0.3837313716)) 
(and (>= x7 0) 
(and (<= (+ x8 0.8455470442) z) 
(and (<= 0.4137153034 y8) 
(and (<= y8 1.9364916731) 
(and (<= x8 (- 2.4646631152 0.8455470442)) 
(and (>= x8 0) 
(and (<= (+ x9 0.9574342864) z) 
(and (<= 0.4103135496 y9) 
(and (<= y9 1.9364916731) 
(and (<= x9 (- 2.4646631152 0.9574342864)) 
(and (>= x9 0) 
(and (<= (+ x10 0.025780153) z) 
(and (<= 0.3639688281 y10) 
(and (<= y10 1.9364916731) 
(and (<= x10 (- 2.4646631152 0.025780153)) 
(and (>= x10 0) 
(and (<= (+ x11 0.0230266146) z) 
(and (<= 0.3447233969 y11) 
(and (<= y11 1.9364916731) 
(and (<= x11 (- 2.4646631152 0.0230266146)) 
(and (>= x11 0) 
(and (<= (+ x12 0.2744219409) z) 
(and (<= 0.3167628461 y12) 
(and (<= y12 1.9364916731) 
(and (<= x12 (- 2.4646631152 0.2744219409)) 
(and (>= x12 0) 
(and (<= (+ x13 0.5735267884) z) 
(and (<= 0.2375471728 y13) 
(and (<= y13 1.9364916731) 
(and (<= x13 (- 2.4646631152 0.5735267884)) 
(and (>= x13 0) 
(and (<= (+ x14 0.4536375533) z) 
(and (<= 0.1865829479 y14) 
(and (<= y14 1.9364916731) 
(and (<= x14 (- 2.4646631152 0.4536375533)) 
(and (>= x14 0) 
(and (<= c 2.4646631152) 
(and (or (<= (+ x0 0.1160129132) x1) (or (<= (+ x1 0.0233538637) x0) (or (>= (- y0 0.980329373) y1) (or (>= (- y1 0.7097531931) y0))))) 
(and (or (<= (+ x0 0.1160129132) x2) (or (<= (+ x2 0.4105267269) x0) (or (>= (- y0 0.980329373) y2) (or (>= (- y2 0.6349416556) y0))))) 
(and (or (<= (+ x0 0.1160129132) x3) (or (<= (+ x3 0.395654385) x0) (or (>= (- y0 0.980329373) y3) (or (>= (- y3 0.6220204055) y0))))) 
(and (or (<= (+ x0 0.1160129132) x4) (or (<= (+ x4 0.9806891887) x0) (or (>= (- y0 0.980329373) y4) (or (>= (- y4 0.4858738607) y0))))) 
(and (or (<= (+ x0 0.1160129132) x5) (or (<= (+ x5 0.2643560084) x0) (or (>= (- y0 0.980329373) y5) (or (>= (- y5 0.483295799) y0))))) 
(and (or (<= (+ x0 0.1160129132) x6) (or (<= (+ x6 0.8605762692) x0) (or (>= (- y0 0.980329373) y6) (or (>= (- y6 0.4436882064) y0))))) 
(and (or (<= (+ x0 0.1160129132) x7) (or (<= (+ x7 0.3837313716) x0) (or (>= (- y0 0.980329373) y7) (or (>= (- y7 0.4347293739) y0))))) 
(and (or (<= (+ x0 0.1160129132) x8) (or (<= (+ x8 0.8455470442) x0) (or (>= (- y0 0.980329373) y8) (or (>= (- y8 0.4137153034) y0))))) 
(and (or (<= (+ x0 0.1160129132) x9) (or (<= (+ x9 0.9574342864) x0) (or (>= (- y0 0.980329373) y9) (or (>= (- y9 0.4103135496) y0))))) 
(and (or (<= (+ x0 0.1160129132) x10) (or (<= (+ x10 0.025780153) x0) (or (>= (- y0 0.980329373) y10) (or (>= (- y10 0.3639688281) y0))))) 
(and (or (<= (+ x0 0.1160129132) x11) (or (<= (+ x11 0.0230266146) x0) (or (>= (- y0 0.980329373) y11) (or (>= (- y11 0.3447233969) y0))))) 
(and (or (<= (+ x0 0.1160129132) x12) (or (<= (+ x12 0.2744219409) x0) (or (>= (- y0 0.980329373) y12) (or (>= (- y12 0.3167628461) y0))))) 
(and (or (<= (+ x0 0.1160129132) x13) (or (<= (+ x13 0.5735267884) x0) (or (>= (- y0 0.980329373) y13) (or (>= (- y13 0.2375471728) y0))))) 
(and (or (<= (+ x0 0.1160129132) x14) (or (<= (+ x14 0.4536375533) x0) (or (>= (- y0 0.980329373) y14) (or (>= (- y14 0.1865829479) y0))))) 
(and (or (<= (+ x1 0.0233538637) x2) (or (<= (+ x2 0.4105267269) x1) (or (>= (- y1 0.7097531931) y2) (or (>= (- y2 0.6349416556) y1))))) 
(and (or (<= (+ x1 0.0233538637) x3) (or (<= (+ x3 0.395654385) x1) (or (>= (- y1 0.7097531931) y3) (or (>= (- y3 0.6220204055) y1))))) 
(and (or (<= (+ x1 0.0233538637) x4) (or (<= (+ x4 0.9806891887) x1) (or (>= (- y1 0.7097531931) y4) (or (>= (- y4 0.4858738607) y1))))) 
(and (or (<= (+ x1 0.0233538637) x5) (or (<= (+ x5 0.2643560084) x1) (or (>= (- y1 0.7097531931) y5) (or (>= (- y5 0.483295799) y1))))) 
(and (or (<= (+ x1 0.0233538637) x6) (or (<= (+ x6 0.8605762692) x1) (or (>= (- y1 0.7097531931) y6) (or (>= (- y6 0.4436882064) y1))))) 
(and (or (<= (+ x1 0.0233538637) x7) (or (<= (+ x7 0.3837313716) x1) (or (>= (- y1 0.7097531931) y7) (or (>= (- y7 0.4347293739) y1))))) 
(and (or (<= (+ x1 0.0233538637) x8) (or (<= (+ x8 0.8455470442) x1) (or (>= (- y1 0.7097531931) y8) (or (>= (- y8 0.4137153034) y1))))) 
(and (or (<= (+ x1 0.0233538637) x9) (or (<= (+ x9 0.9574342864) x1) (or (>= (- y1 0.7097531931) y9) (or (>= (- y9 0.4103135496) y1))))) 
(and (or (<= (+ x1 0.0233538637) x10) (or (<= (+ x10 0.025780153) x1) (or (>= (- y1 0.7097531931) y10) (or (>= (- y10 0.3639688281) y1))))) 
(and (or (<= (+ x1 0.0233538637) x11) (or (<= (+ x11 0.0230266146) x1) (or (>= (- y1 0.7097531931) y11) (or (>= (- y11 0.3447233969) y1))))) 
(and (or (<= (+ x1 0.0233538637) x12) (or (<= (+ x12 0.2744219409) x1) (or (>= (- y1 0.7097531931) y12) (or (>= (- y12 0.3167628461) y1))))) 
(and (or (<= (+ x1 0.0233538637) x13) (or (<= (+ x13 0.5735267884) x1) (or (>= (- y1 0.7097531931) y13) (or (>= (- y13 0.2375471728) y1))))) 
(and (or (<= (+ x1 0.0233538637) x14) (or (<= (+ x14 0.4536375533) x1) (or (>= (- y1 0.7097531931) y14) (or (>= (- y14 0.1865829479) y1))))) 
(and (or (<= (+ x2 0.4105267269) x3) (or (<= (+ x3 0.395654385) x2) (or (>= (- y2 0.6349416556) y3) (or (>= (- y3 0.6220204055) y2))))) 
(and (or (<= (+ x2 0.4105267269) x4) (or (<= (+ x4 0.9806891887) x2) (or (>= (- y2 0.6349416556) y4) (or (>= (- y4 0.4858738607) y2))))) 
(and (or (<= (+ x2 0.4105267269) x5) (or (<= (+ x5 0.2643560084) x2) (or (>= (- y2 0.6349416556) y5) (or (>= (- y5 0.483295799) y2))))) 
(and (or (<= (+ x2 0.4105267269) x6) (or (<= (+ x6 0.8605762692) x2) (or (>= (- y2 0.6349416556) y6) (or (>= (- y6 0.4436882064) y2))))) 
(and (or (<= (+ x2 0.4105267269) x7) (or (<= (+ x7 0.3837313716) x2) (or (>= (- y2 0.6349416556) y7) (or (>= (- y7 0.4347293739) y2))))) 
(and (or (<= (+ x2 0.4105267269) x8) (or (<= (+ x8 0.8455470442) x2) (or (>= (- y2 0.6349416556) y8) (or (>= (- y8 0.4137153034) y2))))) 
(and (or (<= (+ x2 0.4105267269) x9) (or (<= (+ x9 0.9574342864) x2) (or (>= (- y2 0.6349416556) y9) (or (>= (- y9 0.4103135496) y2))))) 
(and (or (<= (+ x2 0.4105267269) x10) (or (<= (+ x10 0.025780153) x2) (or (>= (- y2 0.6349416556) y10) (or (>= (- y10 0.3639688281) y2))))) 
(and (or (<= (+ x2 0.4105267269) x11) (or (<= (+ x11 0.0230266146) x2) (or (>= (- y2 0.6349416556) y11) (or (>= (- y11 0.3447233969) y2))))) 
(and (or (<= (+ x2 0.4105267269) x12) (or (<= (+ x12 0.2744219409) x2) (or (>= (- y2 0.6349416556) y12) (or (>= (- y12 0.3167628461) y2))))) 
(and (or (<= (+ x2 0.4105267269) x13) (or (<= (+ x13 0.5735267884) x2) (or (>= (- y2 0.6349416556) y13) (or (>= (- y13 0.2375471728) y2))))) 
(and (or (<= (+ x2 0.4105267269) x14) (or (<= (+ x14 0.4536375533) x2) (or (>= (- y2 0.6349416556) y14) (or (>= (- y14 0.1865829479) y2))))) 
(and (or (<= (+ x3 0.395654385) x4) (or (<= (+ x4 0.9806891887) x3) (or (>= (- y3 0.6220204055) y4) (or (>= (- y4 0.4858738607) y3))))) 
(and (or (<= (+ x3 0.395654385) x5) (or (<= (+ x5 0.2643560084) x3) (or (>= (- y3 0.6220204055) y5) (or (>= (- y5 0.483295799) y3))))) 
(and (or (<= (+ x3 0.395654385) x6) (or (<= (+ x6 0.8605762692) x3) (or (>= (- y3 0.6220204055) y6) (or (>= (- y6 0.4436882064) y3))))) 
(and (or (<= (+ x3 0.395654385) x7) (or (<= (+ x7 0.3837313716) x3) (or (>= (- y3 0.6220204055) y7) (or (>= (- y7 0.4347293739) y3))))) 
(and (or (<= (+ x3 0.395654385) x8) (or (<= (+ x8 0.8455470442) x3) (or (>= (- y3 0.6220204055) y8) (or (>= (- y8 0.4137153034) y3))))) 
(and (or (<= (+ x3 0.395654385) x9) (or (<= (+ x9 0.9574342864) x3) (or (>= (- y3 0.6220204055) y9) (or (>= (- y9 0.4103135496) y3))))) 
(and (or (<= (+ x3 0.395654385) x10) (or (<= (+ x10 0.025780153) x3) (or (>= (- y3 0.6220204055) y10) (or (>= (- y10 0.3639688281) y3))))) 
(and (or (<= (+ x3 0.395654385) x11) (or (<= (+ x11 0.0230266146) x3) (or (>= (- y3 0.6220204055) y11) (or (>= (- y11 0.3447233969) y3))))) 
(and (or (<= (+ x3 0.395654385) x12) (or (<= (+ x12 0.2744219409) x3) (or (>= (- y3 0.6220204055) y12) (or (>= (- y12 0.3167628461) y3))))) 
(and (or (<= (+ x3 0.395654385) x13) (or (<= (+ x13 0.5735267884) x3) (or (>= (- y3 0.6220204055) y13) (or (>= (- y13 0.2375471728) y3))))) 
(and (or (<= (+ x3 0.395654385) x14) (or (<= (+ x14 0.4536375533) x3) (or (>= (- y3 0.6220204055) y14) (or (>= (- y14 0.1865829479) y3))))) 
(and (or (<= (+ x4 0.9806891887) x5) (or (<= (+ x5 0.2643560084) x4) (or (>= (- y4 0.4858738607) y5) (or (>= (- y5 0.483295799) y4))))) 
(and (or (<= (+ x4 0.9806891887) x6) (or (<= (+ x6 0.8605762692) x4) (or (>= (- y4 0.4858738607) y6) (or (>= (- y6 0.4436882064) y4))))) 
(and (or (<= (+ x4 0.9806891887) x7) (or (<= (+ x7 0.3837313716) x4) (or (>= (- y4 0.4858738607) y7) (or (>= (- y7 0.4347293739) y4))))) 
(and (or (<= (+ x4 0.9806891887) x8) (or (<= (+ x8 0.8455470442) x4) (or (>= (- y4 0.4858738607) y8) (or (>= (- y8 0.4137153034) y4))))) 
(and (or (<= (+ x4 0.9806891887) x9) (or (<= (+ x9 0.9574342864) x4) (or (>= (- y4 0.4858738607) y9) (or (>= (- y9 0.4103135496) y4))))) 
(and (or (<= (+ x4 0.9806891887) x10) (or (<= (+ x10 0.025780153) x4) (or (>= (- y4 0.4858738607) y10) (or (>= (- y10 0.3639688281) y4))))) 
(and (or (<= (+ x4 0.9806891887) x11) (or (<= (+ x11 0.0230266146) x4) (or (>= (- y4 0.4858738607) y11) (or (>= (- y11 0.3447233969) y4))))) 
(and (or (<= (+ x4 0.9806891887) x12) (or (<= (+ x12 0.2744219409) x4) (or (>= (- y4 0.4858738607) y12) (or (>= (- y12 0.3167628461) y4))))) 
(and (or (<= (+ x4 0.9806891887) x13) (or (<= (+ x13 0.5735267884) x4) (or (>= (- y4 0.4858738607) y13) (or (>= (- y13 0.2375471728) y4))))) 
(and (or (<= (+ x4 0.9806891887) x14) (or (<= (+ x14 0.4536375533) x4) (or (>= (- y4 0.4858738607) y14) (or (>= (- y14 0.1865829479) y4))))) 
(and (or (<= (+ x5 0.2643560084) x6) (or (<= (+ x6 0.8605762692) x5) (or (>= (- y5 0.483295799) y6) (or (>= (- y6 0.4436882064) y5))))) 
(and (or (<= (+ x5 0.2643560084) x7) (or (<= (+ x7 0.3837313716) x5) (or (>= (- y5 0.483295799) y7) (or (>= (- y7 0.4347293739) y5))))) 
(and (or (<= (+ x5 0.2643560084) x8) (or (<= (+ x8 0.8455470442) x5) (or (>= (- y5 0.483295799) y8) (or (>= (- y8 0.4137153034) y5))))) 
(and (or (<= (+ x5 0.2643560084) x9) (or (<= (+ x9 0.9574342864) x5) (or (>= (- y5 0.483295799) y9) (or (>= (- y9 0.4103135496) y5))))) 
(and (or (<= (+ x5 0.2643560084) x10) (or (<= (+ x10 0.025780153) x5) (or (>= (- y5 0.483295799) y10) (or (>= (- y10 0.3639688281) y5))))) 
(and (or (<= (+ x5 0.2643560084) x11) (or (<= (+ x11 0.0230266146) x5) (or (>= (- y5 0.483295799) y11) (or (>= (- y11 0.3447233969) y5))))) 
(and (or (<= (+ x5 0.2643560084) x12) (or (<= (+ x12 0.2744219409) x5) (or (>= (- y5 0.483295799) y12) (or (>= (- y12 0.3167628461) y5))))) 
(and (or (<= (+ x5 0.2643560084) x13) (or (<= (+ x13 0.5735267884) x5) (or (>= (- y5 0.483295799) y13) (or (>= (- y13 0.2375471728) y5))))) 
(and (or (<= (+ x5 0.2643560084) x14) (or (<= (+ x14 0.4536375533) x5) (or (>= (- y5 0.483295799) y14) (or (>= (- y14 0.1865829479) y5))))) 
(and (or (<= (+ x6 0.8605762692) x7) (or (<= (+ x7 0.3837313716) x6) (or (>= (- y6 0.4436882064) y7) (or (>= (- y7 0.4347293739) y6))))) 
(and (or (<= (+ x6 0.8605762692) x8) (or (<= (+ x8 0.8455470442) x6) (or (>= (- y6 0.4436882064) y8) (or (>= (- y8 0.4137153034) y6))))) 
(and (or (<= (+ x6 0.8605762692) x9) (or (<= (+ x9 0.9574342864) x6) (or (>= (- y6 0.4436882064) y9) (or (>= (- y9 0.4103135496) y6))))) 
(and (or (<= (+ x6 0.8605762692) x10) (or (<= (+ x10 0.025780153) x6) (or (>= (- y6 0.4436882064) y10) (or (>= (- y10 0.3639688281) y6))))) 
(and (or (<= (+ x6 0.8605762692) x11) (or (<= (+ x11 0.0230266146) x6) (or (>= (- y6 0.4436882064) y11) (or (>= (- y11 0.3447233969) y6))))) 
(and (or (<= (+ x6 0.8605762692) x12) (or (<= (+ x12 0.2744219409) x6) (or (>= (- y6 0.4436882064) y12) (or (>= (- y12 0.3167628461) y6))))) 
(and (or (<= (+ x6 0.8605762692) x13) (or (<= (+ x13 0.5735267884) x6) (or (>= (- y6 0.4436882064) y13) (or (>= (- y13 0.2375471728) y6))))) 
(and (or (<= (+ x6 0.8605762692) x14) (or (<= (+ x14 0.4536375533) x6) (or (>= (- y6 0.4436882064) y14) (or (>= (- y14 0.1865829479) y6))))) 
(and (or (<= (+ x7 0.3837313716) x8) (or (<= (+ x8 0.8455470442) x7) (or (>= (- y7 0.4347293739) y8) (or (>= (- y8 0.4137153034) y7))))) 
(and (or (<= (+ x7 0.3837313716) x9) (or (<= (+ x9 0.9574342864) x7) (or (>= (- y7 0.4347293739) y9) (or (>= (- y9 0.4103135496) y7))))) 
(and (or (<= (+ x7 0.3837313716) x10) (or (<= (+ x10 0.025780153) x7) (or (>= (- y7 0.4347293739) y10) (or (>= (- y10 0.3639688281) y7))))) 
(and (or (<= (+ x7 0.3837313716) x11) (or (<= (+ x11 0.0230266146) x7) (or (>= (- y7 0.4347293739) y11) (or (>= (- y11 0.3447233969) y7))))) 
(and (or (<= (+ x7 0.3837313716) x12) (or (<= (+ x12 0.2744219409) x7) (or (>= (- y7 0.4347293739) y12) (or (>= (- y12 0.3167628461) y7))))) 
(and (or (<= (+ x7 0.3837313716) x13) (or (<= (+ x13 0.5735267884) x7) (or (>= (- y7 0.4347293739) y13) (or (>= (- y13 0.2375471728) y7))))) 
(and (or (<= (+ x7 0.3837313716) x14) (or (<= (+ x14 0.4536375533) x7) (or (>= (- y7 0.4347293739) y14) (or (>= (- y14 0.1865829479) y7))))) 
(and (or (<= (+ x8 0.8455470442) x9) (or (<= (+ x9 0.9574342864) x8) (or (>= (- y8 0.4137153034) y9) (or (>= (- y9 0.4103135496) y8))))) 
(and (or (<= (+ x8 0.8455470442) x10) (or (<= (+ x10 0.025780153) x8) (or (>= (- y8 0.4137153034) y10) (or (>= (- y10 0.3639688281) y8))))) 
(and (or (<= (+ x8 0.8455470442) x11) (or (<= (+ x11 0.0230266146) x8) (or (>= (- y8 0.4137153034) y11) (or (>= (- y11 0.3447233969) y8))))) 
(and (or (<= (+ x8 0.8455470442) x12) (or (<= (+ x12 0.2744219409) x8) (or (>= (- y8 0.4137153034) y12) (or (>= (- y12 0.3167628461) y8))))) 
(and (or (<= (+ x8 0.8455470442) x13) (or (<= (+ x13 0.5735267884) x8) (or (>= (- y8 0.4137153034) y13) (or (>= (- y13 0.2375471728) y8))))) 
(and (or (<= (+ x8 0.8455470442) x14) (or (<= (+ x14 0.4536375533) x8) (or (>= (- y8 0.4137153034) y14) (or (>= (- y14 0.1865829479) y8))))) 
(and (or (<= (+ x9 0.9574342864) x10) (or (<= (+ x10 0.025780153) x9) (or (>= (- y9 0.4103135496) y10) (or (>= (- y10 0.3639688281) y9))))) 
(and (or (<= (+ x9 0.9574342864) x11) (or (<= (+ x11 0.0230266146) x9) (or (>= (- y9 0.4103135496) y11) (or (>= (- y11 0.3447233969) y9))))) 
(and (or (<= (+ x9 0.9574342864) x12) (or (<= (+ x12 0.2744219409) x9) (or (>= (- y9 0.4103135496) y12) (or (>= (- y12 0.3167628461) y9))))) 
(and (or (<= (+ x9 0.9574342864) x13) (or (<= (+ x13 0.5735267884) x9) (or (>= (- y9 0.4103135496) y13) (or (>= (- y13 0.2375471728) y9))))) 
(and (or (<= (+ x9 0.9574342864) x14) (or (<= (+ x14 0.4536375533) x9) (or (>= (- y9 0.4103135496) y14) (or (>= (- y14 0.1865829479) y9))))) 
(and (or (<= (+ x10 0.025780153) x11) (or (<= (+ x11 0.0230266146) x10) (or (>= (- y10 0.3639688281) y11) (or (>= (- y11 0.3447233969) y10))))) 
(and (or (<= (+ x10 0.025780153) x12) (or (<= (+ x12 0.2744219409) x10) (or (>= (- y10 0.3639688281) y12) (or (>= (- y12 0.3167628461) y10))))) 
(and (or (<= (+ x10 0.025780153) x13) (or (<= (+ x13 0.5735267884) x10) (or (>= (- y10 0.3639688281) y13) (or (>= (- y13 0.2375471728) y10))))) 
(and (or (<= (+ x10 0.025780153) x14) (or (<= (+ x14 0.4536375533) x10) (or (>= (- y10 0.3639688281) y14) (or (>= (- y14 0.1865829479) y10))))) 
(and (or (<= (+ x11 0.0230266146) x12) (or (<= (+ x12 0.2744219409) x11) (or (>= (- y11 0.3447233969) y12) (or (>= (- y12 0.3167628461) y11))))) 
(and (or (<= (+ x11 0.0230266146) x13) (or (<= (+ x13 0.5735267884) x11) (or (>= (- y11 0.3447233969) y13) (or (>= (- y13 0.2375471728) y11))))) 
(and (or (<= (+ x11 0.0230266146) x14) (or (<= (+ x14 0.4536375533) x11) (or (>= (- y11 0.3447233969) y14) (or (>= (- y14 0.1865829479) y11))))) 
(and (or (<= (+ x12 0.2744219409) x13) (or (<= (+ x13 0.5735267884) x12) (or (>= (- y12 0.3167628461) y13) (or (>= (- y13 0.2375471728) y12))))) 
(and (or (<= (+ x12 0.2744219409) x14) (or (<= (+ x14 0.4536375533) x12) (or (>= (- y12 0.3167628461) y14) (or (>= (- y14 0.1865829479) y12))))) 
(and (or (<= (+ x13 0.5735267884) x14) (or (<= (+ x14 0.4536375533) x13) (or (>= (- y13 0.2375471728) y14) (or (>= (- y14 0.1865829479) y13))))) )))))))))))))))))))))))))))))))))))))))))))))))))))))))))))))))))))))))))))))))))))))))))))))))))))))))))))))))))))))))))))))))))))))))))))))))))))))))))))))))))))))))))))))))))))))))))))))))))))))))))))))))))))))))
(minimize c)
(check-sat)
(get-objectives)
(exit)
